Route #1: 52 50 39 28 31 17 95 59 27
Route #2: 68 54 96 88 75 21 41 12 58
Route #3: 49 8 62 100 86 10 72 63 19
Route #4: 23 13 57 107 82 48 47 40
Route #5: 73 35 7 37 94 81 44 70
Route #6: 1 90 16 29 78 74 32 79
Route #7: 14 3 108 38 91
Route #8: 67 45 34 106 42 97 92 20 105
Route #9: 5 46 89 51 85 11 77 6
Route #10: 98 66 15 53 26 87 84 18 109
Route #11: 56 102 33 9 101 4 24 103 25 69
Route #12: 30 55 76 83 22 61 60 104 93 80
Route #13: 71 2 43 64 36 65 99
Cost 14971
